dates = {'2021-10-19','2021-10-20','2021-10-21','2021-10-22','2021-10-23','2021-10-24','2021-10-25'};

daysOfWeek = [Tuesday,Wednesday,Thursday,Friday,Saturday,Sunday,Monday];

% For this week, how many people will be here.
numPeople = [32,32,46,35,35,41,42];

% Physical workers need 50 to 100 % more nutrients per day.
numPhysicalWorkers = [18.5,18.5,20.5,20.5,20.5,20.5,20.5];

% Males need +25% more nutrients per day.
numMen = [27,27,41,41,30,36,42];

% Num people who do not eat categories. contains = {none, meat, milk, gluten, egg, nut, seed, sugars}
numRefusals = [| 0,2,0,0,1,1,1,1 | 0,2,0,0,1,1,1,1 | 0,0,0,0,0,0,0,0 | 0,0,1,0,0,5,1,0 | 0,0,1,0,0,5,1,0 | 0,0,1,0,2,0,2,0 | 0,3,0,0,0,2,2,0 |];

